Route #1: 1 206 323 390 1 
Route #2: 1 261 376 187 1 
Route #3: 1 267 30 389 1 
Route #4: 1 378 237 444 1 
Route #5: 1 303 183 86 1 
Route #6: 1 63 422 191 1 
Route #7: 1 198 400 172 1 
Route #8: 1 56 424 365 1 
Route #9: 1 96 222 136 1 
Route #10: 1 431 467 258 1 
Route #11: 1 77 138 298 1 
Route #12: 1 241 186 232 178 1 
Route #13: 1 114 72 274 1 
Route #14: 1 129 76 55 220 1 
Route #15: 1 1 354 268 1 
Route #16: 1 167 254 113 449 1 
Route #17: 1 73 121 193 1 
Route #18: 1 251 285 44 1 
Route #19: 1 459 441 281 1 
Route #20: 1 17 397 286 1 
Route #21: 1 245 160 211 1 
Route #22: 1 381 322 280 1 
Route #23: 1 287 458 201 1 
Route #24: 1 224 190 246 184 1 
Route #25: 1 448 173 321 1 
Route #26: 1 182 42 65 1 
Route #27: 1 181 256 151 1 
Route #28: 1 131 98 111 1 
Route #29: 1 392 373 39 1 
Route #30: 1 15 52 38 1 
Route #31: 1 139 289 103 1 
Route #32: 1 269 213 14 1 
Route #33: 1 295 301 93 23 1 
Route #34: 1 35 262 423 1 
Route #35: 1 101 155 3 1 
Route #36: 1 209 133 360 1 
Route #37: 1 236 342 234 1 
Route #38: 1 19 300 349 1 
Route #39: 1 207 375 230 1 
Route #40: 1 432 94 102 1 
Route #41: 1 43 200 49 1 
Route #42: 1 417 188 106 1 
Route #43: 1 231 442 282 445 1 
Route #44: 1 310 10 152 358 1 
Route #45: 1 117 343 156 1 
Route #46: 1 4 335 468 1 
Route #47: 1 81 318 196 1 
Route #48: 1 265 62 197 275 1 
Route #49: 1 320 362 154 1 
Route #50: 1 5 416 144 1 
Route #51: 1 149 45 223 1 
Route #52: 1 385 238 189 1 
Route #53: 1 127 266 59 443 1 
Route #54: 1 79 395 159 1 
Route #55: 1 421 305 64 1 
Route #56: 1 67 325 109 48 1 
Route #57: 1 132 291 92 1 
Route #58: 1 391 24 112 1 
Route #59: 1 148 338 435 1 
Route #60: 1 411 288 463 1 
Route #61: 1 412 271 367 1 
Route #62: 1 370 9 415 244 1 
Route #63: 1 91 57 20 1 
Route #64: 1 452 466 100 1 
Route #65: 1 6 277 294 327 1 
Route #66: 1 379 326 304 1 
Route #67: 1 414 453 394 1 
Route #68: 1 110 126 175 1 
Route #69: 1 80 313 137 340 1 
Route #70: 1 82 361 33 1 
Route #71: 1 439 372 450 1 
Route #72: 1 31 124 221 1 
Route #73: 1 457 279 18 1 
Route #74: 1 66 218 434 1 
Route #75: 1 169 309 284 364 1 
Route #76: 1 353 306 347 1 
Route #77: 1 40 384 170 1 
Route #78: 1 153 118 26 1 
Route #79: 1 243 128 257 1 
Route #80: 1 377 25 116 1 
Route #81: 1 283 462 90 1 
Route #82: 1 437 253 337 1 
Route #83: 1 333 374 51 1 
Route #84: 1 263 319 352 1 
Route #85: 1 357 177 22 1 
Route #86: 1 122 446 419 1 
Route #87: 1 249 141 402 1 
Route #88: 1 78 216 8 1 
Route #89: 1 54 61 214 1 
Route #90: 1 29 185 83 1 
Route #91: 1 447 366 278 168 1 
Route #92: 1 28 225 219 255 1 
Route #93: 1 210 436 299 1 
Route #94: 1 130 143 174 464 1 
Route #95: 1 314 388 290 1 
Route #96: 1 252 428 461 1 
Route #97: 1 105 217 134 1 
Route #98: 1 107 70 120 60 1 
Route #99: 1 99 356 308 1 
Route #100: 1 68 465 345 1 
Route #101: 1 368 430 199 1 
Route #102: 1 235 396 407 1 
Route #103: 1 456 84 363 1 
Route #104: 1 74 403 192 1 
Route #105: 1 406 233 250 1 
Route #106: 1 166 302 229 1 
Route #107: 1 135 344 427 12 1 
Route #108: 1 157 88 123 438 1 
Route #109: 1 147 329 398 1 
Route #110: 1 346 330 227 1 
Route #111: 1 165 16 425 1 
Route #112: 1 194 297 140 1 
Route #113: 1 383 13 215 1 
Route #114: 1 270 382 331 1 
Route #115: 1 317 350 104 1 
Route #116: 1 212 71 27 1 
Route #117: 1 203 418 336 1 
Route #118: 1 36 195 85 1 
Route #119: 1 242 292 180 1 
Route #120: 1 433 47 369 1 
Route #121: 1 334 420 339 1 
Route #122: 1 162 46 429 1 
Route #123: 1 239 387 158 1 
Route #124: 1 408 409 97 1 
Route #125: 1 348 264 332 1 
Route #126: 1 69 405 426 1 
Route #127: 1 34 208 272 1 
Route #128: 1 307 355 7 1 
Route #129: 1 247 311 351 1 
Route #130: 1 204 145 202 1 
Route #131: 1 75 58 119 1 
Route #132: 1 386 455 115 1 
Route #133: 1 150 171 164 1 
Route #134: 1 226 410 205 1 
Route #135: 1 341 53 163 1 
Route #136: 1 380 454 176 248 1 
Route #137: 1 2 41 146 1 
Route #138: 1 260 460 259 1 
Route #139: 1 315 50 32 1 
Route #140: 1 401 11 293 1 
Route #141: 1 371 413 393 1 
Route #142: 1 21 324 273 404 1 
Route #143: 1 108 316 399 1 
Route #144: 1 359 142 125 1 
Route #145: 1 95 161 296 1 
Route #146: 1 440 240 328 1 
Route #147: 1 228 179 37 1 
Route #148: 1 451 276 87 1 
Route #149: 1 89 312 1 

Cost 182493
Time 36.3532


 * Another infos *

 Iterations: 469 Time: 36.3532 sec - 0.6059 min - 0.0101 horas
0.0000 h 0.6059 min
Problem dimension: 469
